set dmus := 1 3 4 5 6 7 8; # Ignore DMU 2
set inputs := Funds ;
set outputs := Patents Publications ;

param input_data default 0.0 :

        Funds :=

1 203.4
#2 348.1
3 696.6
4 283.7
5 501.7
6 1265.7
7 2282.2
8 141.0

        ;

param output_data default 0.0 :

        Patents Publications :=

1 9 20
#2 0 0
3 1 13
4 0 8
5 5 2
6 10 11
7 4 476
8 0 15
        ;